
Log started (V12.10.0.0) Fri Apr 23 07:35:12 2021


Problem 'asset.lp' read.
Read time = 0.01 sec. (1.14 ticks)
New value for default parallel thread count: 1
New value for time limit in seconds: 150
Version identifier: 12.10.0.0 | 2019-11-26 | 843d4de
CPXPARAM_Threads                                 1
CPXPARAM_TimeLimit                               150
Found incumbent of value 0.000000 after 0.00 sec. (0.26 ticks)
Tried aggregator 3 times.
MIP Presolve eliminated 4886 rows and 583 columns.
MIP Presolve modified 7667 coefficients.
Aggregator did 2938 substitutions.
Reduced MIP has 3159 rows, 3843 columns, and 17714 nonzeros.
Reduced MIP has 3421 binaries, 346 generals, 0 SOSs, and 0 indicators.
Presolve time = 0.04 sec. (51.16 ticks)
Probing fixed 249 vars, tightened 42 bounds.
Probing time = 0.05 sec. (29.55 ticks)
Cover probing fixed 0 vars, tightened 35 bounds.
Tried aggregator 2 times.
Detecting symmetries...
MIP Presolve eliminated 348 rows and 336 columns.
MIP Presolve modified 643 coefficients.
Aggregator did 2 substitutions.
Reduced MIP has 2809 rows, 3505 columns, and 15807 nonzeros.
Reduced MIP has 3127 binaries, 304 generals, 0 SOSs, and 0 indicators.
Presolve time = 0.02 sec. (24.61 ticks)
Probing time = 0.01 sec. (3.61 ticks)
Clique table members: 10351.
MIP emphasis: balance optimality and feasibility.
MIP search method: dynamic search.
Parallel mode: none, using 1 thread.
Root relaxation solution time = 0.19 sec. (275.15 ticks)

        Nodes                                         Cuts/
   Node  Left     Objective  IInf  Best Integer    Best Bound    ItCnt     Gap

*     0+    0                            0.0000     1070.0000              --- 
      0     0      906.8383   429        0.0000      906.8383     2585     --- 
      0     0      898.3363   429        0.0000     Cuts: 802     4904     --- 
      0     0      893.9667   429        0.0000     Cuts: 802     7201     --- 
      0     0      891.5314   429        0.0000     Cuts: 802     8298     --- 
      0     0      889.4010   429        0.0000     Cuts: 582     9438     --- 
      0     0      888.6261   429        0.0000     Cuts: 802     9882     --- 
Detecting symmetries...
      0     0      887.4050   429        0.0000     Cuts: 480    11200     --- 
      0     0      886.8465   429        0.0000     Cuts: 772    11775     --- 
      0     0      886.6362   429        0.0000     Cuts: 734    12353     --- 
      0     0      886.3448   429        0.0000     Cuts: 742    12773     --- 
      0     0      884.9291   429        0.0000     Cuts: 408    13353     --- 
      0     0      884.1246   429        0.0000     Cuts: 691    14042     --- 
      0     0      880.9061   429        0.0000     Cuts: 559    15069     --- 
      0     0      880.4979   429        0.0000     Cuts: 802    16084     --- 
      0     0      879.8278   429        0.0000     Cuts: 802    16945     --- 
      0     0      879.4300   429        0.0000     Cuts: 683    17581     --- 
      0     0      878.6687   429        0.0000     Cuts: 626    19039     --- 
      0     0      876.8965   429        0.0000     Cuts: 802    20701     --- 
      0     0      876.2558   429        0.0000     Cuts: 704    22091     --- 
      0     0      876.0461   429        0.0000     Cuts: 639    23634     --- 
      0     0      875.1930   429        0.0000     Cuts: 802    25038     --- 
      0     0      874.9306   429        0.0000     Cuts: 708    26043     --- 
      0     0      874.7874   429        0.0000     Cuts: 802    26768     --- 
      0     0      874.3721   429        0.0000     Cuts: 172    27670     --- 
      0     0      873.8115   429        0.0000     Cuts: 802    28714     --- 
      0     0      871.7674   429        0.0000     Cuts: 802    29295     --- 
      0     0      870.5356   429        0.0000     Cuts: 577    30448     --- 
      0     0      870.4385   429        0.0000     Cuts: 802    31209     --- 
*     0+    0                          350.0000      870.4385           148.70%
*     0+    0                          390.0000      870.4385           123.19%
*     0+    0                          425.0000      870.4385           104.81%
      0     0        cutoff            425.0000      870.4385    31209  104.81%
Detecting symmetries...
      0     2      870.4385   416      425.0000      870.4283    31209  104.81%
Elapsed time = 6.67 sec. (8841.99 ticks, tree = 0.01 MB, solutions = 3)
      2     4      869.9595   379      425.0000      869.9576    33147  104.70%
     10    12      869.6006   374      425.0000      869.8303    34791  104.67%
     19    21      869.6006   378      425.0000      869.8303    36556  104.67%
     20    22      868.1115   373      425.0000      869.8303    37385  104.67%
     30    32      869.0069   373      425.0000      869.8303    39207  104.67%
     37    39      859.3504   370      425.0000      869.8303    41539  104.67%
     42    44      861.0448   363      425.0000      869.8303    43470  104.67%
     50    52      860.5866   363      425.0000      869.8303    45190  104.67%
     58    60      851.5100   357      425.0000      869.8303    47484  104.67%
     77    79      761.4590   316      425.0000      869.8303    54523  104.67%
Elapsed time = 9.76 sec. (13284.11 ticks, tree = 0.54 MB, solutions = 3)
    100   100      741.3704   276      425.0000      869.8303    62974  104.67%
    238   212      868.5584   416      425.0000      869.8303    70393  104.67%
    278   252      835.3009   356      425.0000      869.8303    76926  104.67%
    307   281      798.5895   301      425.0000      869.8303    83321  104.67%
    360   318      683.1356   200      425.0000      869.8303    89261  104.67%
*   463   386      integral     0      465.0000      869.8303    93276   87.06%
    467   386      861.6733   422      465.0000      869.8303    95680   87.06%
    480   399      862.9499   400      465.0000      869.6006    99078   87.01%
    518   437      847.2683   376      465.0000      869.6006   104721   87.01%
    560   479      836.4010   400      465.0000      869.6006   109514   87.01%

Performing restart 1

Repeating presolve.
Tried aggregator 2 times.
MIP Presolve modified 4998 coefficients.
Aggregator did 8 substitutions.
Reduced MIP has 2801 rows, 3497 columns, and 13051 nonzeros.
Reduced MIP has 3119 binaries, 304 generals, 0 SOSs, and 0 indicators.
Presolve time = 0.01 sec. (15.16 ticks)
Tried aggregator 1 time.
Reduced MIP has 2801 rows, 3497 columns, and 13051 nonzeros.
Reduced MIP has 3119 binaries, 304 generals, 0 SOSs, and 0 indicators.
Presolve time = 0.01 sec. (8.84 ticks)
Represolve time = 0.12 sec. (74.05 ticks)
    573     0      809.9081   473      465.0000     Cuts: 528   118992   74.17%
    573     0      789.0919   473      465.0000     Cuts: 386   120544   69.70%
    573     0      777.6320   473      465.0000     Cuts: 372   122197   67.23%
    573     0      768.6935   473      465.0000     Cuts: 428   123932   65.31%
    573     0      761.3971   473      465.0000     Cuts: 380   125407   63.74%
    573     0      756.8736   473      465.0000     Cuts: 362   126578   62.77%
*   573+    0                          475.0000      756.8736            59.34%
    573     0      754.7444   473      475.0000     Cuts: 293   127789   58.89%
    573     0      752.3439   473      475.0000     Cuts: 266   128918   58.39%
    573     0      749.9761   473      475.0000     Cuts: 247   129714   57.89%
*   573+    0                          480.0000      749.9761            56.25%
    573     0      748.3590   473      480.0000     Cuts: 287   131402   55.91%
    573     0      747.6776   473      480.0000     Cuts: 281   132303   55.77%
    573     0      746.8479   473      480.0000     Cuts: 226   133368   55.59%
    573     0      746.3895   473      480.0000     Cuts: 186   134262   55.50%
    573     0      746.0663   473      480.0000     Cuts: 144   135095   55.43%
    573     0      744.8809   473      480.0000     Cuts: 242   136294   55.18%
*   573+    0                          485.0000      744.8809            53.58%
    573     0      743.9116   473      485.0000     Cuts: 227   137399   53.38%
    573     0      743.2377   473      485.0000     Cuts: 222   138492   53.24%
    573     0      742.0927   473      485.0000     Cuts: 146   139625   53.01%
    573     0      741.4703   473      485.0000     Cuts: 171   140770   52.88%
    573     0      741.3050   473      485.0000     Cuts: 171   141495   52.85%
    573     0      740.9479   473      485.0000     Cuts: 161   142146   52.77%
*   573+    0                          490.0000      740.9479            51.21%
    573     0      740.2296   473      490.0000     Cuts: 165   143209   51.07%
    573     0      739.6879   473      490.0000     Cuts: 216   144213   50.96%
    573     0      739.2886   473      490.0000     Cuts: 206   145208   50.88%
*   573+    0                          495.0000      739.2886            49.35%
    573     0        cutoff            495.0000      739.2886   145208   49.35%
    573     0      739.1533   473      495.0000     Cuts: 166   145740   49.32%
    573     0      739.0151   473      495.0000     Cuts: 165   145997   49.30%
    573     0      738.8640   473      495.0000     Cuts: 127   146236   49.27%
*   573+    0                          505.0000      738.8640            46.31%
    573     0      738.5325   473      505.0000     Cuts: 157   146566   46.24%
    573     0      738.3892   473      505.0000     Cuts: 209   147036   46.22%
    573     0      738.2163   473      505.0000     Cuts: 200   147402   46.18%
    573     0      738.0667   473      505.0000     Cuts: 177   147980   46.15%
    573     0      737.8576   473      505.0000     Cuts: 167   148371   46.11%
    573     0      737.7399   473      505.0000     Cuts: 145   148860   46.09%
    573     0      737.6764   473      505.0000      Cuts: 86   149083   46.07%
    573     0      737.5262   473      505.0000     Cuts: 120   149468   46.04%
    573     2      737.5262   427      505.0000      737.5172   149468   46.04%
Elapsed time = 42.37 sec. (54234.06 ticks, tree = 0.01 MB, solutions = 10)
    576     5      736.8509   412      505.0000      737.3651   150882   46.01%
    578     7      735.4234   410      505.0000      737.3651   154513   46.01%
    581    10      714.8291   369      505.0000      737.3651   158196   46.01%
    584    13      731.0664   380      505.0000      737.3651   161481   46.01%
    588    17      726.1624   358      505.0000      737.3651   164050   46.01%
    593    22      715.9232   331      505.0000      737.3651   168450   46.01%
    599    28      719.2154   347      505.0000      737.3651   171891   46.01%
    602    31      718.5440   387      505.0000      737.3651   176305   46.01%
    609    38      722.5165   373      505.0000      737.3651   181153   46.01%
    613    42      723.7919   360      505.0000      737.3651   184871   46.01%
Elapsed time = 50.06 sec. (66223.14 ticks, tree = 0.29 MB, solutions = 10)
    618    47      723.2602   351      505.0000      737.3651   190155   46.01%
    623    52      709.5989   343      505.0000      737.3651   194281   46.01%
    629    58      702.9249   334      505.0000      737.3651   198880   46.01%
    633    62      717.2588   343      505.0000      737.3651   202824   46.01%
    640    69      716.5445   336      505.0000      737.3651   206737   46.01%
    647    76      715.4157   354      505.0000      737.3651   211558   46.01%
    656    85      695.4204   305      505.0000      737.3651   215064   46.01%
    666    94      698.3850   318      505.0000      737.3651   219290   46.01%
    674   102      702.3723   322      505.0000      737.3651   221830   46.01%
    690   114      702.3724   322      505.0000      737.3651   225546   46.01%
Elapsed time = 57.02 sec. (77082.03 ticks, tree = 0.62 MB, solutions = 10)
    711   131      700.3610   308      505.0000      737.3651   231009   46.01%
    721   139      698.4793   300      505.0000      737.3651   234992   46.01%
    738   154      682.1992   274      505.0000      737.3651   240068   46.01%
    750   166      662.4667   235      505.0000      737.3651   243982   46.01%
    766   174      666.6937   223      505.0000      737.3651   247319   46.01%
    790   190      654.1886   201      505.0000      737.3651   250192   46.01%
    832   216      735.0957   405      505.0000      736.9066   254114   45.92%
    833   217      735.0653   402      505.0000      736.9066   254177   45.92%
    836   220      731.5095   367      505.0000      736.9066   259764   45.92%
    847   231      727.8877   375      505.0000      736.9066   265761   45.92%
Elapsed time = 64.45 sec. (87649.26 ticks, tree = 0.85 MB, solutions = 10)
    861   245      723.6421   352      505.0000      736.9066   271968   45.92%
    873   257      722.0921   355      505.0000      736.9066   275088   45.92%
    888   272      706.6697   281      505.0000      736.9066   281008   45.92%
    899   281      683.5280   283      505.0000      736.9066   286133   45.92%
    916   297      645.1266   272      505.0000      736.9066   291174   45.92%
    938   319      638.7449   243      505.0000      736.9066   295303   45.92%
    989   366      629.5726   220      505.0000      736.9066   301374   45.92%
   1033   387      731.3784   425      505.0000      736.0303   308513   45.75%
   1034   388      732.0014   414      505.0000      735.4214   311930   45.63%
   1042   396      728.0505   404      505.0000      735.4214   316179   45.63%
Elapsed time = 72.51 sec. (99470.87 ticks, tree = 1.18 MB, solutions = 10)
   1052   406      720.7987   380      505.0000      735.4214   321231   45.63%
   1067   421      713.4969   369      505.0000      735.4214   326571   45.63%
   1080   434      683.5884   339      505.0000      735.4214   331368   45.63%
   1110   464      623.4468   243      505.0000      735.4214   337099   45.63%
   1126   472      727.5585   416      505.0000      735.1121   341957   45.57%
   1133   479      721.4717   352      505.0000      735.1121   347057   45.57%
   1140   486      698.9687   309      505.0000      735.1121   352939   45.57%
   1153   499      677.9805   298      505.0000      735.1121   358051   45.57%
   1188   534      658.2706   271      505.0000      735.1121   364231   45.57%
   1193   535      714.6226   390      505.0000      735.0806   369967   45.56%
Elapsed time = 79.95 sec. (110685.11 ticks, tree = 1.46 MB, solutions = 10)
   1202   544      702.6808   363      505.0000      735.0806   376705   45.56%
   1206   548      684.7772   319      505.0000      735.0806   383008   45.56%
   1216   558      688.7895   350      505.0000      735.0806   388589   45.56%
   1225   567      666.1743   317      505.0000      735.0806   394035   45.56%
   1243   584      638.3059   248      505.0000      735.0806   400019   45.56%
   1253   594      630.0619   235      505.0000      735.0806   404284   45.56%
   1275   616      617.3590   213      505.0000      735.0806   408226   45.56%
   1322   655      560.6961   139      505.0000      735.0806   413625   45.56%
   1353   678      727.4475   390      505.0000      734.1544   418761   45.38%
   1359   684      718.2272   318      505.0000      734.1544   422876   45.38%
Elapsed time = 87.23 sec. (121174.05 ticks, tree = 1.76 MB, solutions = 10)
   1370   695      701.3590   303      505.0000      734.1544   428738   45.38%
   1373   698      699.1328   325      505.0000      734.1544   430406   45.38%
   1386   711      658.2546   258      505.0000      734.1544   435357   45.38%
   1440   765      608.6240   180      505.0000      734.1544   440766   45.38%
   1469   781      721.8359   364      505.0000      731.9952   443887   44.95%
   1476   788      711.5533   335      505.0000      731.9952   449129   44.95%
   1490   802      698.1606   318      505.0000      731.9952   453965   44.95%
   1521   833      673.4330   306      505.0000      731.9952   458594   44.95%
   1540   848      725.6433   399      505.0000      731.9140   464212   44.93%
   1546   854      718.4788   345      505.0000      731.9140   468452   44.93%
Elapsed time = 94.60 sec. (131946.37 ticks, tree = 2.09 MB, solutions = 10)
   1555   863      705.7839   321      505.0000      731.9140   473677   44.93%
   1574   882      694.1625   273      505.0000      731.9140   478609   44.93%
   1597   905      672.0620   266      505.0000      731.9140   483904   44.93%
   1627   935      642.3144   202      505.0000      731.9140   489088   44.93%
   1633   937      718.7183   388      505.0000      731.8468   494450   44.92%
   1642   946      708.3323   355      505.0000      731.8468   500706   44.92%
   1648   952      702.4158   337      505.0000      731.8468   506620   44.92%
   1657   961      682.8123   335      505.0000      731.8468   512576   44.92%
   1678   982      662.1006   271      505.0000      731.8468   518105   44.92%
   1709  1009      688.1008   341      505.0000      731.8243   539793   44.92%
Elapsed time = 103.91 sec. (145374.66 ticks, tree = 2.37 MB, solutions = 10)
   1749  1049      615.9725   258      505.0000      731.8243   566881   44.92%
   1798  1092      718.9140   411      505.0000      731.6833   584800   44.89%
   1829  1123      673.0291   336      505.0000      731.6833   604771   44.89%
   1865  1153      696.8470   334      505.0000      731.4918   623042   44.85%
   1928  1211      707.5195   393      505.0000      731.3784   640672   44.83%
   1978  1261      640.1877   252      505.0000      731.3784   661169   44.83%
   2009  1288      662.4057   322      505.0000      731.3779   683150   44.83%
   2068  1343      714.7253   391      505.0000      731.1842   704290   44.79%
   2093  1368      674.3228   290      505.0000      731.1842   729983   44.79%
   2176  1439      615.8960   220      505.0000      731.1842   757248   44.79%
Elapsed time = 130.96 sec. (184341.03 ticks, tree = 3.26 MB, solutions = 10)
   2236  1496      593.1260   166      505.0000      731.1779   781432   44.79%
   2322  1572      655.9714   252      505.0000      731.0663   805096   44.77%
   2361  1607      700.1580   331      505.0000      730.9213   825049   44.74%
Starting limited solution polishing.
   2418  1664      609.4000   217      505.0000      730.9213   848935   44.74%
*  2573+ 1807                          510.0000      730.8009            43.29%
   2573  1809      669.5205   300      510.0000      730.8009   872264   43.29%
   2657  1885      679.7083   318      510.0000      730.6986   897715   43.27%

GUB cover cuts applied:  150
Clique cuts applied:  129
Cover cuts applied:  30
Implied bound cuts applied:  63
Flow cuts applied:  26
Mixed integer rounding cuts applied:  232
Zero-half cuts applied:  147
Lift and project cuts applied:  20
Gomory fractional cuts applied:  1

Root node processing (before b&c):
  Real time             =    6.65 sec. (8822.32 ticks)
Sequential b&c:
  Real time             =  143.35 sec. (201869.48 ticks)
                          ------------
Total (root+branch&cut) =  150.00 sec. (210691.80 ticks)

Solution pool: 12 solutions saved.

MIP - Time limit exceeded, integer feasible:  Objective =  5.1000000000e+02
Current MIP best bound =  7.3069860337e+02 (gap = 220.699, 43.27%)
Solution time =  150.00 sec.  Iterations = 905100  Nodes = 2666 (1893)
Deterministic time = 210691.82 ticks  (1404.60 ticks/sec)


Incumbent solution
Variable Name           Solution Value
F                           510.000000
y118                          1.000000
y231                          1.000000
y154                          1.000000
y127                          1.000000
y24                           1.000000
y149                          1.000000
y114                          1.000000
y176                          1.000000
y103                          1.000000
y168                          1.000000
y213                          1.000000
y46                           1.000000
y90                           1.000000
y199                          1.000000
y247                          1.000000
y21                           1.000000
y135                          1.000000
y140                          1.000000
y36                           1.000000
y117                          1.000000
y105                          1.000000
y19                           1.000000
y25                           1.000000
y188                          1.000000
y225                          1.000000
y67                           1.000000
y80                           1.000000
y106                          1.000000
x56x21x1                      1.000000
x144x168x1                    1.000000
x108x154x1                    1.000000
x158x114x1                    1.000000
x63x199x1                     1.000000
x265x118x1                    1.000000
x161x168x1                    1.000000
x161x105x1                    1.000000
x152x176x1                    1.000000
x56x21x2                      1.000000
x144x213x2                    1.000000
x73x231x2                     1.000000
x73x149x2                     1.000000
x246x149x2                    1.000000
x108x127x2                    1.000000
x194x46x2                     1.000000
x265x118x2                    1.000000
x152x90x2                     1.000000
x121x103x3                    2.000000
x110x231x3                    1.000000
x34x24x3                      1.000000
x34x114x3                     1.000000
x246x24x3                     1.000000
x158x127x3                    1.000000
x63x140x3                     1.000000
x194x154x3                    1.000000
x118x176x1                    1.000000
x118x46x2                     1.000000
x231x213x2                    1.000000
x231x90x3                     1.000000
x154x105x1                    1.000000
x154x140x3                    1.000000
x127x135x2                    1.000000
x127x19x3                     1.000000
x24x199x3                     1.000000
x24x80x3                      1.000000
x149x247x2                    1.000000
x149x19x2                     1.000000
x114x135x1                    1.000000
x114x247x3                    1.000000
x176x36x1                     1.000000
x176x117x1                    1.000000
x103x25x3                     1.000000
x103x106x3                    1.000000
x168x225x1                    2.000000
x213x188x2                    2.000000
x46x67x2                      2.000000
x90x80x2                      1.000000
x90x117x3                     1.000000
x199x0x1                      1.000000
x199x0x3                      1.000000
x247x0x2                      1.000000
x247x0x3                      1.000000
x21x25x1                      1.000000
x21x36x2                      1.000000
x135x0x1                      1.000000
x135x0x2                      1.000000
x140x0x3                      2.000000
x36x0x1                       1.000000
x36x0x2                       1.000000
x117x0x1                      1.000000
x117x0x3                      1.000000
x105x0x1                      1.000000
x105x106x1                    1.000000
x19x0x2                       1.000000
x19x0x3                       1.000000
x25x0x1                       1.000000
x25x0x3                       1.000000
x188x0x2                      2.000000
x225x0x1                      2.000000
x67x0x2                       2.000000
x80x0x2                       1.000000
x80x0x3                       1.000000
x106x0x1                      1.000000
x106x0x3                      1.000000
s56                           6.571696
s153                          7.010000
s180                          8.010000
s35                           8.030000
s20                           7.050000
s213                          8.001412
s197                          8.110000
s122                          7.140000
s88                           8.190000
s238                          8.220000
s262                          7.270000
s141                          8.280000
s87                           7.370000
s109                          7.400000
s46                           7.820720
s222                          7.440000
s192                          8.570000
s172                          8.580000
s90                           8.106301
s30                           7.680000
s199                          8.487734
s165                          8.740000
s247                          8.627257
s239                          8.770000
s21                           7.941571
z56z21z1                      1.000000
z56z21z2                      1.000000
s135                          8.820000
s89                           8.860000
s96                           8.860000
s233                          8.890000
s27                           8.910000
s11                           7.930000
s5                            7.980000
s54                           9.000000
s66                           9.020000
s91                           9.120000
s36                           9.140000
s117                          9.199872
s105                          8.427107
z56z105z1                     1.000000
s19                           9.330000
s25                           9.340000
s263                          9.350000
s188                          9.390000
z56z188z2                     1.000000
s225                          9.420000
z56z225z1                     1.000000
s207                          9.440000
s67                           9.460000
z56z67z2                      1.000000
s80                           9.460000
s106                          9.490000
s121                          6.060476
s267                          7.427800
s128                          7.436718
s92                           7.518239
s114                          7.406451
s147                          6.770000
s151                          6.800000
s103                          7.445660
z121z103z3                    1.000000
s130                          7.870000
s12                           6.880000
s95                           6.880000
s226                          6.930000
s157                          7.632344
z121z157z3                    1.000000
s230                          7.380000
s37                           8.520000
z121z37z3                     1.000000
s42                           8.680000
s40                           7.800000
z121z40z3                     1.000000
s140                          8.840000
z121z140z3                    1.000000
s32                           7.970000
z121z32z3                     1.000000
s170                          9.180000
z121z170z3                    1.000000
s178                          9.420000
z121z178z3                    1.000000
s144                          6.263503
s176                          7.740000
s150                          7.800000
s168                          7.845402
z144z168z1                    1.000000
s175                          7.000000
z144z213z2                    1.000000
z144z54z2                     1.000000
z144z105z1                    1.000000
z144z263z1                    1.000000
z144z188z2                    1.000000
z144z225z1                    1.000000
z144z67z2                     1.000000
s110                          4.531960
s231                          6.647074
z110z231z3                    1.000000
s154                          6.831680
s250                          7.083725
s127                          7.171837
s220                          7.179880
s245                          6.290000
s24                           7.278503
s241                          6.480000
z110z103z3                    1.000000
z110z157z3                    1.000000
z110z230z3                    1.000000
z110z37z3                     1.000000
z110z42z3                     1.000000
z110z40z3                     1.000000
z110z140z3                    1.000000
z110z32z3                     1.000000
z110z170z3                    1.000000
z110z178z3                    1.000000
s73                           4.848040
z73z231z2                     1.000000
s200                          5.920000
s94                           6.774099
s112                          7.063253
s149                          7.187257
z73z149z2                     1.000000
s264                          6.630000
z73z150z2                     1.000000
z73z213z2                     1.000000
z73z122z2                     1.000000
z73z88z2                      1.000000
z73z46z2                      1.000000
z73z96z2                      1.000000
z73z5z2                       1.000000
z73z54z2                      1.000000
z73z188z2                     1.000000
z73z67z2                      1.000000
s34                           4.997300
z34z24z3                      1.000000
z34z114z3                     1.000000
z34z230z3                     1.000000
z34z37z3                      1.000000
z34z42z3                      1.000000
z34z40z3                      1.000000
z34z140z3                     1.000000
z34z32z3                      1.000000
z34z170z3                     1.000000
z34z178z3                     1.000000
s246                          5.080800
z246z24z3                     1.000000
z246z149z2                    1.000000
z246z230z3                    1.000000
z246z37z3                     1.000000
z246z40z3                     1.000000
z246z140z3                    1.000000
z246z96z2                     1.000000
z246z32z3                     1.000000
z246z5z2                      1.000000
z246z54z2                     1.000000
z246z170z3                    1.000000
z246z188z2                    1.000000
z246z178z3                    1.000000
z246z67z2                     1.000000
s108                          5.206960
s14                           5.690000
s50                           5.960000
z108z154z1                    1.000000
z108z127z2                    1.000000
s229                          7.269024
s181                          7.207758
z108z176z1                    1.000000
z108z175z1                    1.000000
z108z180z1                    1.000000
z108z20z1                     1.000000
z108z213z2                    1.000000
z108z122z2                    1.000000
z108z88z2                     1.000000
z108z238z1                    1.000000
z108z141z1                    1.000000
z108z46z2                     1.000000
z108z96z2                     1.000000
z108z11z1                     1.000000
z108z5z2                      1.000000
z108z54z2                     1.000000
z108z105z1                    1.000000
z108z263z1                    1.000000
z108z188z2                    1.000000
z108z225z1                    1.000000
z108z67z2                     1.000000
s158                          5.415130
z158z127z3                    1.000000
z158z114z1                    1.000000
z158z230z3                    1.000000
z158z37z3                     1.000000
z158z42z3                     1.000000
z158z40z3                     1.000000
z158z140z3                    1.000000
z158z11z1                     1.000000
z158z32z3                     1.000000
z158z170z3                    1.000000
z158z105z1                    1.000000
z158z263z1                    1.000000
z158z178z3                    1.000000
z158z225z1                    1.000000
s63                           5.148460
z63z199z1                     1.000000
z63z40z3                      1.000000
z63z140z3                     1.000000
z63z11z1                      1.000000
z63z32z3                      1.000000
z63z170z3                     1.000000
z63z105z1                     1.000000
z63z263z1                     1.000000
z63z178z3                     1.000000
z63z225z1                     1.000000
s194                          5.359150
z194z154z3                    1.000000
z194z122z2                    1.000000
z194z88z2                     1.000000
z194z230z3                    1.000000
z194z46z2                     1.000000
z194z37z3                     1.000000
z194z42z3                     1.000000
z194z40z3                     1.000000
z194z140z3                    1.000000
z194z96z2                     1.000000
z194z32z3                     1.000000
z194z5z2                      1.000000
z194z54z2                     1.000000
z194z170z3                    1.000000
z194z188z2                    1.000000
z194z178z3                    1.000000
z194z67z2                     1.000000
s265                          5.059580
s61                           5.280000
s118                          6.246302
z265z118z1                    1.000000
z265z118z2                    1.000000
s86                           5.320000
s57                           5.390000
s240                          5.460000
z265z176z1                    1.000000
z265z150z2                    1.000000
z265z168z1                    1.000000
z265z175z1                    1.000000
z265z180z1                    1.000000
z265z20z1                     1.000000
z265z213z2                    1.000000
z265z122z2                    1.000000
z265z88z2                     1.000000
z265z238z1                    1.000000
z265z141z1                    1.000000
z265z46z2                     1.000000
z265z96z2                     1.000000
z265z11z1                     1.000000
z265z5z2                      1.000000
z265z54z2                     1.000000
z265z105z1                    1.000000
z265z263z1                    1.000000
z265z188z2                    1.000000
z265z225z1                    1.000000
z265z67z2                     1.000000
s161                          5.975310
z161z176z1                    1.000000
z161z168z1                    1.000000
z161z105z1                    1.000000
z161z263z1                    1.000000
z161z225z1                    1.000000
s152                          5.895450
z152z176z1                    1.000000
z152z90z2                     1.000000
z152z96z2                     1.000000
z152z11z1                     1.000000
z152z5z2                      1.000000
z152z54z2                     1.000000
z152z105z1                    1.000000
z152z263z1                    1.000000
z152z188z2                    1.000000
z152z225z1                    1.000000
z152z67z2                     1.000000
z61z54z2                      1.000000
z61z105z1                     1.000000
z61z263z1                     1.000000
z61z188z2                     1.000000
z61z225z1                     1.000000
z61z67z2                      1.000000
z118z176z1                    1.000000
z118z46z2                     1.000000
z118z54z2                     1.000000
z118z105z1                    1.000000
z118z263z1                    1.000000
z118z188z2                    1.000000
z118z225z1                    1.000000
z118z67z2                     1.000000
z86z105z1                     1.000000
z86z263z1                     1.000000
z86z225z1                     1.000000
z57z54z2                      1.000000
z57z188z2                     1.000000
z57z67z2                      1.000000
z240z105z1                    1.000000
z240z263z1                    1.000000
z240z225z1                    1.000000
z14z105z1                     1.000000
z14z263z1                     1.000000
z14z225z1                     1.000000
z231z213z2                    1.000000
z231z90z3                     1.000000
z231z188z2                    1.000000
z231z67z2                     1.000000
z200z188z2                    1.000000
z200z67z2                     1.000000
z50z105z1                     1.000000
z50z263z1                     1.000000
z50z225z1                     1.000000
z94z188z2                     1.000000
z94z67z2                      1.000000
z154z140z3                    1.000000
z154z105z1                    1.000000
z154z225z1                    1.000000
z250z188z2                    1.000000
z250z67z2                     1.000000
z112z188z2                    1.000000
z112z225z1                    1.000000
z112z67z2                     1.000000
z127z135z2                    1.000000
z127z19z3                     1.000000
z127z188z2                    1.000000
z127z67z2                     1.000000
z220z188z2                    1.000000
z220z67z2                     1.000000
z229z225z1                    1.000000
z24z199z3                     1.000000
z24z80z3                      1.000000
z149z247z2                    1.000000
z149z19z2                     1.000000
z149z188z2                    1.000000
z149z67z2                     1.000000
z267z225z1                    1.000000
z181z225z1                    1.000000
z241z188z2                    1.000000
z241z67z2                     1.000000
z128z188z2                    1.000000
z128z67z2                     1.000000
z92z225z1                     1.000000
z264z188z2                    1.000000
z264z225z1                    1.000000
z264z67z2                     1.000000
z114z247z3                    1.000000
z114z135z1                    1.000000
z114z225z1                    1.000000
z176z36z1                     1.000000
z176z117z1                    1.000000
z147z170z3                    1.000000
z103z25z3                     1.000000
z103z106z3                    1.000000
z130z188z2                    1.000000
z130z67z2                     1.000000
z168z225z1                    1.000000
z226z188z2                    1.000000
z226z67z2                     1.000000
z175z225z1                    1.000000
z35z188z2                     1.000000
z213z188z2                    1.000000
z157z178z3                    1.000000
z197z225z1                    1.000000
z122z188z2                    1.000000
z88z188z2                     1.000000
z46z67z2                      1.000000
z90z117z3                     1.000000
z90z80z2                      1.000000
z21z36z2                      1.000000
z21z25z1                      1.000000
z5z67z2                       1.000000
z105z106z1                    1.000000
All other variables in the range 1-7367 are 0.
